zaligvinder/models/all_counting_bench/generated/cnt2/instance722.smt2
;test regex ^((sha256\.[a-f0-9]{64})|(sif\.[0-9a-f]{8}-[0-9a-f]{4}-[0-9a-f]{4}-[0-9a-f]{4}-[0-9a-f]{12}))$
(declare-const X String)
(assert (str.in_re X (re.++ (re.++ (str.to_re "") (re.union (re.++ (str.to_re "s") (re.++ (str.to_re "h") (re.++ (str.to_re "a") (re.++ (str.to_re "256") (re.++ (str.to_re ".") ((_ re.loop 64 64) (re.union (re.range "a" "f") (re.range "0" "9")))))))) (re.++ (str.to_re "s") (re.++ (str.to_re "i") (re.++ (str.to_re "f") (re.++ (str.to_re ".") (re.++ ((_ re.loop 8 8) (re.union (re.range "0" "9") (re.range "a" "f"))) (re.++ (str.to_re "-") (re.++ ((_ re.loop 4 4) (re.union (re.range "0" "9") (re.range "a" "f"))) (re.++ (str.to_re "-") (re.++ ((_ re.loop 4 4) (re.union (re.range "0" "9") (re.range "a" "f"))) (re.++ (str.to_re "-") (re.++ ((_ re.loop 4 4) (re.union (re.range "0" "9") (re.range "a" "f"))) (re.++ (str.to_re "-") ((_ re.loop 12 12) (re.union (re.range "0" "9") (re.range "a" "f"))))))))))))))))) (str.to_re ""))))
; sanitize danger characters:  < > ' " &
(assert (not (str.in_re X (re.++ re.all (re.union (str.to_re "\u{3c}") (str.to_re "\u{3e}") (str.to_re "\u{27}") (str.to_re "\u{22}") (str.to_re "\u{26}")) re.all))))
(assert (< 10 (str.len X)))
(check-sat)
(get-model)